SYSTEM = Rhodium surface calculation

Start parameter for this Run:
   ISTART =      0    job   : 0-new  1-cont  2-samecut
   ICHARG =      2    charge: 1-file 2-atom 10-const
   INIWAV =      1    electr: 0-lowe 1-rand

 Electronic Relaxation 1
   ENCUT  = 200.00 eV 
   IALGO  =     18    algorithm   NELM   =     60;   NELMIN= 0; NELMDL=  3    # of ELM steps m
   EDIFF  =   1E-04   stopping-criterion for ELM      
   BMIX = 2.0 
   TIME = 0.05

 Ionic Relaxation
   EDIFFG =  .1E-02   stopping-criterion for IOM
   NSW    =       9   number of steps for IOM
   IBRION = 2         

   POTIM  =   10.0    time-step for ion-motion

   POMASS = 102.91
   ZVAL   =   11.0

 DOS related values:
   SIGMA  =    0.4;  ISMEAR =  1  broad. in eV, -4-tet -1-fermi 0-gaus