KPoints template
0
Monkhorst-Pack
  12  12  12
0.0  0.0  0.0
