Al
1.0
        4.0389294624         0.0000000000         0.0000000000
        0.0000000000         4.0389294624         0.0000000000
        0.0000000000         0.0000000000         4.0389294624
   Al
    4
Direct
     0.000000000         0.000000000         0.000000000
     0.000000000         0.500000000         0.500000000
     0.500000000         0.000000000         0.500000000
     0.500000000         0.500000000         0.000000000
